S = 5;
start = [|0,0,0,0,4,0,0,8,0,0,0,0,0,9,0,0,0,0,0,0,16,0,0,0,24|
17,16,14,10,0,0,0,0,0,0,0,0,0,0,0,0,3,0,0,9,0,0,0,0,0|
0,0,0,1,0,0,14,0,0,7,0,0,0,5,0,0,0,0,0,0,0,0,0,0,0|
0,0,0,0,0,0,0,5,25,0,20,0,0,15,0,0,0,0,0,0,0,0,0,0,14|
0,0,0,0,0,0,0,22,0,0,0,0,3,0,0,0,0,0,0,0,0,0,0,0,0|
10,0,0,0,0,0,0,18,0,0,0,8,4,0,0,0,0,0,0,0,0,0,25,0,0|
0,0,0,0,0,0,0,0,0,0,0,0,0,0,0,0,0,0,0,0,0,0,0,0,0|
0,0,0,0,12,0,0,0,0,0,0,0,0,0,0,0,0,0,0,0,0,0,0,0,0|
0,0,0,0,0,0,0,0,0,0,0,0,0,0,0,0,0,0,0,0,0,0,0,0,0|
0,0,0,0,0,4,3,0,0,0,0,0,0,0,9,7,21,0,0,0,0,0,0,0,13|
0,0,0,3,0,0,0,0,14,0,4,0,0,0,0,9,0,17,0,19,2,0,0,0,0|
0,0,0,0,0,13,0,0,0,0,0,0,0,0,6,0,0,0,0,0,0,0,0,0,0|
0,0,0,0,0,0,0,0,0,0,0,17,0,0,0,0,0,0,8,0,0,0,0,0,0|
4,11,0,0,0,0,0,0,22,0,0,20,0,0,8,0,0,16,0,25,0,12,0,0,0|
0,0,16,0,0,0,0,0,6,0,0,0,0,0,0,0,0,0,0,0,11,0,0,0,0|
0,0,0,0,0,0,23,15,0,0,0,18,0,0,7,0,0,0,0,0,0,0,0,0,0|
0,0,0,0,2,19,0,0,0,0,0,0,0,0,0,0,0,0,10,0,0,13,0,0,0|
0,0,0,0,16,21,0,0,0,0,0,0,6,0,0,0,0,0,0,0,0,0,1,0,0|
0,0,0,0,0,0,0,17,0,0,2,0,0,0,0,0,0,0,0,0,0,0,0,0,0|
0,0,0,0,24,0,0,0,0,0,1,0,0,3,0,6,0,0,0,18,7,0,0,0,0|
0,0,0,0,18,12,0,0,0,0,0,0,0,0,0,0,0,0,0,0,0,0,0,13,0|
0,24,0,0,0,0,0,0,0,15,0,0,0,0,0,0,0,0,0,12,0,23,0,0,0|
0,0,0,0,0,0,0,0,0,4,23,0,0,0,0,0,0,0,25,0,0,0,0,0,0|
0,0,13,0,0,0,0,0,10,0,0,0,0,0,0,0,4,0,0,0,0,0,0,0,0|
0,0,0,0,0,0,0,0,0,0,0,3,0,0,0,0,0,0,0,0,0,0,0,0,0|];